
Gurobi 9.1.2 (win64, Java) logging started Thu Nov 11 22:08:59 2021

Academic license - for non-commercial use only - expires 2022-10-30
Gurobi Optimizer version 9.1.2 build v9.1.2rc0 (win64)
Thread count: 6 physical cores, 12 logical processors, using up to 12 threads
Optimize a model with 40 rows, 400 columns and 800 nonzeros
Model fingerprint: 0x83c88c62
Variable types: 0 continuous, 400 integer (400 binary)
Coefficient statistics:
  Matrix range     [1e+00, 1e+03]
  Objective range  [1e+02, 1e+03]
  Bounds range     [1e+00, 1e+00]
  RHS range        [1e+00, 4e+02]
Found heuristic solution: objective 3744.0000000
Presolve removed 14 rows and 294 columns
Presolve time: 0.01s
Presolved: 26 rows, 106 columns, 212 nonzeros
Variable types: 0 continuous, 106 integer (106 binary)
Presolved: 26 rows, 106 columns, 212 nonzeros


Root relaxation: cutoff, 9 iterations, 0.00 seconds

    Nodes    |    Current Node    |     Objective Bounds      |     Work
 Expl Unexpl |  Obj  Depth IntInf | Incumbent    BestBd   Gap | It/Node Time

     0     0     cutoff    0      3744.00000 3744.00000  0.00%     -    0s

Explored 0 nodes (9 simplex iterations) in 0.02 seconds
Thread count was 12 (of 12 available processors)

Solution count 1: 3744 

Optimal solution found (tolerance 1.00e-12)
Best objective 3.744000000000e+03, best bound 3.744000000000e+03, gap 0.0000%
